NAME: tsp20-18
TYPE: TSP
DIMENSION: 20
EDGE_WEIGHT_TYPE: EUC_2D
NODE_COORD_SECTION
0 15 59
1 69 56
2 47 26
3 64 43
4 100 27
5 7 20
6 0 41
7 79 56
8 25 97
9 49 51
10 33 38
11 99 61
12 18 70
13 89 63
14 4 59
15 83 20
16 28 49
17 0 39
18 89 88
19 51 81
EOF